c defined variables: 6 15 23 28 32 41 45 54 58 66 71 75 83 87 92 96 100 109 113 122 126 130 138 143 147 151 160 164 168 177 181 190 194 203 214 221 228 235 245 249 256 260 267 271 283 287 291 295 299 306 310 317 321 325 332 336 340 344 351 355 359 366 370 383 387 405 406 409 410 413 414 415 416 419 420 421 422 425 426 427 428 431 433 434 437 438 439 440 441 442 445 446 448 449 450 453 454 455 456 457 458 461 463 464 465 466 469 470 471 472 473 474 477 478 479 480 481 482 485 486 487 488 489 490 493 495 496 497 498 501 502 503 504 505 506 507 508 511 512 513 514 515 516 517 518 521 522 523 524 525 526 527 528 531 533 534 535 536 537 538 541 542 543 544 545 546 547 548 551 552 553 554 555 556 557 558 561 562 563 564 565 566 567 568 571 573 574 575 576 577 578 581 582 583 584 585 586 587 588 589 590 593 594 595 596 597 598 599 600 601 602 605 606 607 610 611 612 613 614 617 619 620 621 622 623 624 625 626 629 630 631 632 633 634 635 636 637 638 639 640 644 646 647 648 649 650 651 652 653 654 655 659 660 661 663 664 665 666 667 668 669 670 671 672 676 678 679 681 682 683 684 685 686 687 688 689 690 691 694 
p cnf 2282 2703
a 399 396 369 324 316 331 328 343 335 347 339 354 358 259 252 248 244 74 78 65 69 52 61 48 57 39 44 121 134 373 376 365 263 350 362 53 62 70 79 91 104 108 117 270 379 386 266 279 274 207 202 185 176 198 189 155 142 172 159 26 35 13 18 22 31 1 4 9 658 675 255 313 320 382 286 282 298 294 290 302 305 309 206 201 193 184 197 188 171 158 180 175 40 49 5 10 2 27 36 14 19 217 220 210 213 231 238 224 227 234 241 112 107 103 90 95 99 82 86 125 116 393 390 141 150 146 154 120 129 133 137 167 163 0
e 3 7 8 11 12 16 17 20 21 24 25 29 30 33 34 37 38 42 43 46 47 50 51 55 56 59 60 63 64 67 68 72 73 76 77 80 81 84 85 88 89 93 94 97 98 101 102 105 106 110 111 114 115 118 119 123 124 127 128 131 132 135 136 139 140 144 145 148 149 152 153 156 157 161 162 165 166 169 170 173 174 178 179 182 183 186 187 191 192 195 196 199 200 204 205 208 209 211 212 215 216 218 219 222 223 225 226 229 230 232 233 236 237 239 240 242 243 246 247 250 251 253 254 257 258 261 262 264 265 268 269 272 273 276 277 278 280 281 284 285 288 289 292 293 296 297 300 301 303 304 307 308 311 312 314 315 318 319 322 323 326 327 329 330 333 334 337 338 341 342 345 346 348 349 352 353 356 357 360 361 363 364 367 368 371 372 374 375 377 378 380 381 384 385 388 389 391 392 394 395 397 398 400 401 402 403 404 407 408 411 412 417 418 423 424 429 430 432 435 436 443 444 447 451 452 459 460 462 467 468 475 476 483 484 491 492 494 499 500 509 510 519 520 529 530 532 539 540 549 550 559 560 569 570 572 579 580 591 592 603 604 609 615 616 618 627 628 641 642 645 656 657 662 673 674 677 680 692 693 6 15 23 28 32 41 45 54 58 66 71 75 83 87 92 96 100 109 113 122 126 130 138 143 147 151 160 164 168 177 181 190 194 203 214 221 228 235 245 249 256 260 267 271 283 287 291 295 299 306 310 317 321 325 332 336 340 344 351 355 359 366 370 383 387 405 406 409 410 413 414 415 416 419 420 421 422 425 426 427 428 431 433 434 437 438 439 440 441 442 445 446 448 449 450 453 454 455 456 457 458 461 463 464 465 466 469 470 471 472 473 474 477 478 479 480 481 482 485 486 487 488 489 490 493 495 496 497 498 501 502 503 504 505 506 507 508 511 512 513 514 515 516 517 518 521 522 523 524 525 526 527 528 531 533 534 535 536 537 538 541 542 543 544 545 546 547 548 551 552 553 554 555 556 557 558 561 562 563 564 565 566 567 568 571 573 574 575 576 577 578 581 582 583 584 585 586 587 588 589 590 593 594 595 596 597 598 599 600 601 602 605 606 607 610 611 612 613 614 617 619 620 621 622 623 624 625 626 629 630 631 632 633 634 635 636 637 638 639 640 644 646 647 648 649 650 651 652 653 654 655 659 660 661 663 664 665 666 667 668 669 670 671 672 676 678 679 681 682 683 684 685 686 687 688 689 690 691 694 2003 2004 2005 2006 2007 2008 2009 2010 2011 2012 2013 2014 2015 2016 2017 2018 2019 2020 2021 2022 2023 2024 2025 2026 2027 2028 2029 2030 2031 2032 2033 2034 2035 2036 2037 2038 2039 2040 2041 2042 2043 2044 2045 2046 2047 2048 2049 2050 2051 2052 2053 2054 2055 2056 2057 2058 2059 2060 2061 2062 2063 2064 2065 2066 2067 2068 2069 2070 2071 2072 2073 2074 2075 2076 2077 2078 2079 2080 2081 2082 2083 2084 2085 2086 2087 2088 2089 2090 2091 2092 2093 2094 2095 2096 2097 2098 2099 2100 2101 2102 2103 2104 2105 2106 2107 2108 2109 2110 2111 2112 2113 2114 2115 2116 2117 2118 2119 2120 2121 2122 2123 2124 2125 2126 2127 2128 2129 2130 2131 2132 2133 2134 2135 2136 2137 2138 2139 2140 2141 2142 2143 2144 2145 2146 2147 2148 2149 2150 2151 2152 2153 2154 2155 2156 2157 2158 2159 2160 2161 2162 2163 2164 2165 2166 2167 2168 2169 2170 2171 2172 2173 2174 2175 2176 2177 2178 2179 2180 2181 2182 2183 2184 2185 2186 2187 2188 2189 2190 2191 2192 2193 2194 2195 2196 2197 2198 2199 2200 2201 2202 2203 2204 2205 2206 2207 2208 2209 2210 2211 2212 2213 2214 2215 2216 2217 2218 2219 2220 2221 2222 2223 2224 2225 2226 2227 2228 2229 2230 2231 2232 2233 2234 2235 2236 2237 2238 2239 2240 2241 2242 2243 2244 2245 2246 2247 2248 2249 2250 2251 2252 2253 2254 2255 2256 2257 2258 2259 2260 2261 2262 2263 2264 2265 2266 2267 2268 2269 2270 2271 2272 2273 2274 2275 2276 2277 2278 2279 2280 2281 2282 0
d 275 231 238 0
d 643 396 393 0
d 608 379 376 0
2004 -6 0
-2004 6 0
2005 -15 0
-2005 15 0
2006 -23 0
-2006 23 0
2007 -28 0
-2007 28 0
2008 -32 0
-2008 32 0
2009 -41 0
-2009 41 0
2010 -45 0
-2010 45 0
2011 -54 0
-2011 54 0
2012 -58 0
-2012 58 0
2013 -66 0
-2013 66 0
2014 -71 0
-2014 71 0
2015 -75 0
-2015 75 0
2016 -83 0
-2016 83 0
2017 -87 0
-2017 87 0
2018 -92 0
-2018 92 0
2019 -96 0
-2019 96 0
2020 -100 0
-2020 100 0
2021 -109 0
-2021 109 0
2022 -113 0
-2022 113 0
2023 -122 0
-2023 122 0
2024 -126 0
-2024 126 0
2025 -130 0
-2025 130 0
2026 -138 0
-2026 138 0
2027 -143 0
-2027 143 0
2028 -147 0
-2028 147 0
2029 -151 0
-2029 151 0
2030 -160 0
-2030 160 0
2031 -164 0
-2031 164 0
2032 -168 0
-2032 168 0
2033 -177 0
-2033 177 0
2034 -181 0
-2034 181 0
2035 -190 0
-2035 190 0
2036 -194 0
-2036 194 0
2037 -203 0
-2037 203 0
2038 -214 0
-2038 214 0
2039 -221 0
-2039 221 0
2040 -228 0
-2040 228 0
2041 -235 0
-2041 235 0
2042 -245 0
-2042 245 0
2043 -249 0
-2043 249 0
2044 -256 0
-2044 256 0
2045 -260 0
-2045 260 0
2046 -267 0
-2046 267 0
2047 -271 0
-2047 271 0
2048 -283 0
-2048 283 0
2049 -287 0
-2049 287 0
2050 -291 0
-2050 291 0
2051 -295 0
-2051 295 0
2052 -299 0
-2052 299 0
2053 -306 0
-2053 306 0
2054 -310 0
-2054 310 0
2055 -317 0
-2055 317 0
2056 -321 0
-2056 321 0
2057 -325 0
-2057 325 0
2058 -332 0
-2058 332 0
2059 -336 0
-2059 336 0
2060 -340 0
-2060 340 0
2061 -344 0
-2061 344 0
2062 -351 0
-2062 351 0
2063 -355 0
-2063 355 0
2064 -359 0
-2064 359 0
2065 -366 0
-2065 366 0
2066 -370 0
-2066 370 0
2067 -383 0
-2067 383 0
2068 -387 0
-2068 387 0
2069 -405 0
-2069 405 0
2070 -406 0
-2070 406 0
2071 -409 0
-2071 409 0
2072 -410 0
-2072 410 0
2073 -413 0
-2073 413 0
2074 -414 0
-2074 414 0
2075 -415 0
-2075 415 0
2076 -416 0
-2076 416 0
2077 -419 0
-2077 419 0
2078 -420 0
-2078 420 0
2079 -421 0
-2079 421 0
2080 -422 0
-2080 422 0
2081 -425 0
-2081 425 0
2082 -426 0
-2082 426 0
2083 -427 0
-2083 427 0
2084 -428 0
-2084 428 0
2085 -431 0
-2085 431 0
2086 -433 0
-2086 433 0
2087 -434 0
-2087 434 0
2088 -437 0
-2088 437 0
2089 -438 0
-2089 438 0
2090 -439 0
-2090 439 0
2091 -440 0
-2091 440 0
2092 -441 0
-2092 441 0
2093 -442 0
-2093 442 0
2094 -445 0
-2094 445 0
2095 -446 0
-2095 446 0
2096 -448 0
-2096 448 0
2097 -449 0
-2097 449 0
2098 -450 0
-2098 450 0
2099 -453 0
-2099 453 0
2100 -454 0
-2100 454 0
2101 -455 0
-2101 455 0
2102 -456 0
-2102 456 0
2103 -457 0
-2103 457 0
2104 -458 0
-2104 458 0
2105 -461 0
-2105 461 0
2106 -463 0
-2106 463 0
2107 -464 0
-2107 464 0
2108 -465 0
-2108 465 0
2109 -466 0
-2109 466 0
2110 -469 0
-2110 469 0
2111 -470 0
-2111 470 0
2112 -471 0
-2112 471 0
2113 -472 0
-2113 472 0
2114 -473 0
-2114 473 0
2115 -474 0
-2115 474 0
2116 -477 0
-2116 477 0
2117 -478 0
-2117 478 0
2118 -479 0
-2118 479 0
2119 -480 0
-2119 480 0
2120 -481 0
-2120 481 0
2121 -482 0
-2121 482 0
2122 -485 0
-2122 485 0
2123 -486 0
-2123 486 0
2124 -487 0
-2124 487 0
2125 -488 0
-2125 488 0
2126 -489 0
-2126 489 0
2127 -490 0
-2127 490 0
2128 -493 0
-2128 493 0
2129 -495 0
-2129 495 0
2130 -496 0
-2130 496 0
2131 -497 0
-2131 497 0
2132 -498 0
-2132 498 0
2133 -501 0
-2133 501 0
2134 -502 0
-2134 502 0
2135 -503 0
-2135 503 0
2136 -504 0
-2136 504 0
2137 -505 0
-2137 505 0
2138 -506 0
-2138 506 0
2139 -507 0
-2139 507 0
2140 -508 0
-2140 508 0
2141 -511 0
-2141 511 0
2142 -512 0
-2142 512 0
2143 -513 0
-2143 513 0
2144 -514 0
-2144 514 0
2145 -515 0
-2145 515 0
2146 -516 0
-2146 516 0
2147 -517 0
-2147 517 0
2148 -518 0
-2148 518 0
2149 -521 0
-2149 521 0
2150 -522 0
-2150 522 0
2151 -523 0
-2151 523 0
2152 -524 0
-2152 524 0
2153 -525 0
-2153 525 0
2154 -526 0
-2154 526 0
2155 -527 0
-2155 527 0
2156 -528 0
-2156 528 0
2157 -531 0
-2157 531 0
2158 -533 0
-2158 533 0
2159 -534 0
-2159 534 0
2160 -535 0
-2160 535 0
2161 -536 0
-2161 536 0
2162 -537 0
-2162 537 0
2163 -538 0
-2163 538 0
2164 -541 0
-2164 541 0
2165 -542 0
-2165 542 0
2166 -543 0
-2166 543 0
2167 -544 0
-2167 544 0
2168 -545 0
-2168 545 0
2169 -546 0
-2169 546 0
2170 -547 0
-2170 547 0
2171 -548 0
-2171 548 0
2172 -551 0
-2172 551 0
2173 -552 0
-2173 552 0
2174 -553 0
-2174 553 0
2175 -554 0
-2175 554 0
2176 -555 0
-2176 555 0
2177 -556 0
-2177 556 0
2178 -557 0
-2178 557 0
2179 -558 0
-2179 558 0
2180 -561 0
-2180 561 0
2181 -562 0
-2181 562 0
2182 -563 0
-2182 563 0
2183 -564 0
-2183 564 0
2184 -565 0
-2184 565 0
2185 -566 0
-2185 566 0
2186 -567 0
-2186 567 0
2187 -568 0
-2187 568 0
2188 -571 0
-2188 571 0
2189 -573 0
-2189 573 0
2190 -574 0
-2190 574 0
2191 -575 0
-2191 575 0
2192 -576 0
-2192 576 0
2193 -577 0
-2193 577 0
2194 -578 0
-2194 578 0
2195 -581 0
-2195 581 0
2196 -582 0
-2196 582 0
2197 -583 0
-2197 583 0
2198 -584 0
-2198 584 0
2199 -585 0
-2199 585 0
2200 -586 0
-2200 586 0
2201 -587 0
-2201 587 0
2202 -588 0
-2202 588 0
2203 -589 0
-2203 589 0
2204 -590 0
-2204 590 0
2205 -593 0
-2205 593 0
2206 -594 0
-2206 594 0
2207 -595 0
-2207 595 0
2208 -596 0
-2208 596 0
2209 -597 0
-2209 597 0
2210 -598 0
-2210 598 0
2211 -599 0
-2211 599 0
2212 -600 0
-2212 600 0
2213 -601 0
-2213 601 0
2214 -602 0
-2214 602 0
2215 -605 0
-2215 605 0
2216 -606 0
-2216 606 0
2217 -607 0
-2217 607 0
2218 -610 0
-2218 610 0
2219 -611 0
-2219 611 0
2220 -612 0
-2220 612 0
2221 -613 0
-2221 613 0
2222 -614 0
-2222 614 0
2223 -617 0
-2223 617 0
2224 -619 0
-2224 619 0
2225 -620 0
-2225 620 0
2226 -621 0
-2226 621 0
2227 -622 0
-2227 622 0
2228 -623 0
-2228 623 0
2229 -624 0
-2229 624 0
2230 -625 0
-2230 625 0
2231 -626 0
-2231 626 0
2232 -629 0
-2232 629 0
2233 -630 0
-2233 630 0
2234 -631 0
-2234 631 0
2235 -632 0
-2235 632 0
2236 -633 0
-2236 633 0
2237 -634 0
-2237 634 0
2238 -635 0
-2238 635 0
2239 -636 0
-2239 636 0
2240 -637 0
-2240 637 0
2241 -638 0
-2241 638 0
2242 -639 0
-2242 639 0
2243 -640 0
-2243 640 0
2244 -644 0
-2244 644 0
2245 -646 0
-2245 646 0
2246 -647 0
-2246 647 0
2247 -648 0
-2247 648 0
2248 -649 0
-2248 649 0
2249 -650 0
-2249 650 0
2250 -651 0
-2250 651 0
2251 -652 0
-2251 652 0
2252 -653 0
-2252 653 0
2253 -654 0
-2253 654 0
2254 -655 0
-2254 655 0
2257 -659 0
-2257 659 0
2258 -660 0
-2258 660 0
2259 -661 0
-2259 661 0
2260 -663 0
-2260 663 0
2261 -664 0
-2261 664 0
2262 -665 0
-2262 665 0
2263 -666 0
-2263 666 0
2264 -667 0
-2264 667 0
2265 -668 0
-2265 668 0
2266 -669 0
-2266 669 0
2267 -670 0
-2267 670 0
2268 -671 0
-2268 671 0
2269 -672 0
-2269 672 0
2270 -676 0
-2270 676 0
2271 -678 0
-2271 678 0
2256 -679 0
-2256 679 0
2272 -681 0
-2272 681 0
2273 -682 0
-2273 682 0
2274 -683 0
-2274 683 0
2275 -684 0
-2275 684 0
2276 -685 0
-2276 685 0
2277 -686 0
-2277 686 0
2278 -687 0
-2278 687 0
2279 -688 0
-2279 688 0
2280 -689 0
-2280 689 0
2281 -690 0
-2281 690 0
2282 -691 0
-2282 691 0
2003 -694 0
-2003 694 0
694 0
-694 401 693 0
-401 398 -400 0
-398 395 -397 0
-395 392 -394 0
-392 389 -391 0
-389 385 -388 0
-385 381 -384 0
-381 378 -380 0
-378 375 -377 0
-375 372 -374 0
-372 368 -371 0
-368 364 -367 0
-364 361 -363 0
-361 357 -360 0
-357 353 -356 0
-353 349 -352 0
-349 346 -348 0
-346 342 -345 0
-342 338 -341 0
-338 334 -337 0
-334 330 -333 0
-330 327 -329 0
-327 323 -326 0
-323 319 -322 0
-319 315 -318 0
-315 312 -314 0
-312 308 -311 0
-308 304 -307 0
-304 301 -303 0
-301 297 -300 0
-297 293 -296 0
-293 289 -292 0
-289 285 -288 0
-285 281 -284 0
-281 278 -280 0
-278 273 -277 0
-273 269 -272 0
-269 265 -268 0
-265 262 -264 0
-262 258 -261 0
-258 254 -257 0
-254 251 -253 0
-251 247 -250 0
-247 243 -246 0
-243 240 -242 0
-240 237 -239 0
-237 233 -236 0
-233 230 -232 0
-230 226 -229 0
-226 223 -225 0
-223 219 -222 0
-219 216 -218 0
-216 212 -215 0
-212 209 -211 0
-209 205 -208 0
-205 200 -204 0
-200 196 -199 0
-196 192 -195 0
-192 187 -191 0
-187 183 -186 0
-183 179 -182 0
-179 174 -178 0
-174 170 -173 0
-170 166 -169 0
-166 162 -165 0
-162 157 -161 0
-157 153 -156 0
-153 149 -152 0
-149 145 -148 0
-145 140 -144 0
-140 136 -139 0
-136 132 -135 0
-132 128 -131 0
-128 124 -127 0
-124 119 -123 0
-119 115 -118 0
-115 111 -114 0
-111 106 -110 0
-106 102 -105 0
-102 98 -101 0
-98 94 -97 0
-94 89 -93 0
-89 85 -88 0
-85 81 -84 0
-81 77 -80 0
-77 73 -76 0
-73 68 -72 0
-68 64 -67 0
-64 60 -63 0
-60 56 -59 0
-56 51 -55 0
-51 47 -50 0
-47 43 -46 0
-43 38 -42 0
-38 34 -37 0
-34 30 -33 0
-30 25 -29 0
-25 21 -24 0
-21 17 -20 0
-17 12 -16 0
-12 8 -11 0
-8 -3 -7 0
1 -2 3 0
-1 2 3 0
4 6 7 0
-4 -6 7 0
-1 5 6 0
-6 1 0
-6 -5 0
9 -10 11 0
-9 10 11 0
13 15 16 0
-13 -15 16 0
-9 14 15 0
-15 9 0
-15 -14 0
18 -19 20 0
-18 19 20 0
22 23 24 0
-22 -23 24 0
-4 -13 23 0
-23 4 0
-23 13 0
26 28 29 0
-26 -28 29 0
-18 27 28 0
-28 18 0
-28 -27 0
31 32 33 0
-31 -32 33 0
-13 -26 32 0
-32 13 0
-32 26 0
35 -36 37 0
-35 36 37 0
39 41 42 0
-39 -41 42 0
-35 40 41 0
-41 35 0
-41 -40 0
44 45 46 0
-44 -45 46 0
-26 -39 45 0
-45 26 0
-45 39 0
48 -49 50 0
-48 49 50 0
52 54 55 0
-52 -54 55 0
-48 53 54 0
-54 48 0
-54 -53 0
57 58 59 0
-57 -58 59 0
-39 -52 58 0
-58 39 0
-58 52 0
61 -62 63 0
-61 62 63 0
65 66 67 0
-65 -66 67 0
-22 -44 66 0
-66 22 0
-66 44 0
69 71 72 0
-69 -71 72 0
-61 70 71 0
-71 61 0
-71 -70 0
74 75 76 0
-74 -75 76 0
-31 -57 75 0
-75 31 0
-75 57 0
78 -79 80 0
-78 79 80 0
82 83 84 0
-82 -83 84 0
-52 -69 83 0
-83 52 0
-83 69 0
86 87 88 0
-86 -87 88 0
-44 -82 87 0
-87 44 0
-87 82 0
90 92 93 0
-90 -92 93 0
-78 91 92 0
-92 78 0
-92 -91 0
95 96 97 0
-95 -96 97 0
-69 -90 96 0
-96 69 0
-96 90 0
99 100 101 0
-99 -100 101 0
-57 -95 100 0
-100 57 0
-100 95 0
103 -104 105 0
-103 104 105 0
107 109 110 0
-107 -109 110 0
-103 108 109 0
-109 103 0
-109 -108 0
112 113 114 0
-112 -113 114 0
-90 -107 113 0
-113 90 0
-113 107 0
116 -117 118 0
-116 117 118 0
120 122 123 0
-120 -122 123 0
-116 121 122 0
-122 116 0
-122 -121 0
125 126 127 0
-125 -126 127 0
-107 -120 126 0
-126 107 0
-126 120 0
129 130 131 0
-129 -130 131 0
-82 -112 130 0
-130 82 0
-130 112 0
133 -134 135 0
-133 134 135 0
137 138 139 0
-137 -138 139 0
-95 -125 138 0
-138 95 0
-138 125 0
141 143 144 0
-141 -143 144 0
-133 142 143 0
-143 133 0
-143 -142 0
146 147 148 0
-146 -147 148 0
-120 -141 147 0
-147 120 0
-147 141 0
150 151 152 0
-150 -151 152 0
-112 -146 151 0
-151 112 0
-151 146 0
154 -155 156 0
-154 155 156 0
158 160 161 0
-158 -160 161 0
-154 159 160 0
-160 154 0
-160 -159 0
163 164 165 0
-163 -164 165 0
-141 -158 164 0
-164 141 0
-164 158 0
167 168 169 0
-167 -168 169 0
-125 -163 168 0
-168 125 0
-168 163 0
171 -172 173 0
-171 172 173 0
175 177 178 0
-175 -177 178 0
-171 176 177 0
-177 171 0
-177 -176 0
180 181 182 0
-180 -181 182 0
-158 -175 181 0
-181 158 0
-181 175 0
184 -185 186 0
-184 185 186 0
188 190 191 0
-188 -190 191 0
-184 189 190 0
-190 184 0
-190 -189 0
193 194 195 0
-193 -194 195 0
-175 -188 194 0
-194 175 0
-194 188 0
197 -198 199 0
-197 198 199 0
201 203 204 0
-201 -203 204 0
-197 202 203 0
-203 197 0
-203 -202 0
206 -207 208 0
-206 207 208 0
210 -2 211 0
-210 2 211 0
213 214 215 0
-213 -214 215 0
-210 5 214 0
-214 210 0
-214 -5 0
217 -10 218 0
-217 10 218 0
220 221 222 0
-220 -221 222 0
-217 14 221 0
-221 217 0
-221 -14 0
224 -19 225 0
-224 19 225 0
227 228 229 0
-227 -228 229 0
-213 -220 228 0
-228 213 0
-228 220 0
231 220 232 0
-231 -220 232 0
234 235 236 0
-234 -235 236 0
-224 27 235 0
-235 224 0
-235 -27 0
238 234 239 0
-238 -234 239 0
241 -36 242 0
-241 36 242 0
244 245 246 0
-244 -245 246 0
-241 40 245 0
-245 241 0
-245 -40 0
248 249 250 0
-248 -249 250 0
-234 -244 249 0
-249 234 0
-249 244 0
252 -49 253 0
-252 49 253 0
255 256 257 0
-255 -256 257 0
-252 53 256 0
-256 252 0
-256 -53 0
259 260 261 0
-259 -260 261 0
-244 -255 260 0
-260 244 0
-260 255 0
263 -62 264 0
-263 62 264 0
266 267 268 0
-266 -267 268 0
-227 -248 267 0
-267 227 0
-267 248 0
270 271 272 0
-270 -271 272 0
-263 70 271 0
-271 263 0
-271 -70 0
274 276 277 0
-274 -276 277 0
-275 -259 276 0
-276 275 0
-276 259 0
279 -79 280 0
-279 79 280 0
282 283 284 0
-282 -283 284 0
-255 -270 283 0
-283 255 0
-283 270 0
286 287 288 0
-286 -287 288 0
-248 -282 287 0
-287 248 0
-287 282 0
290 291 292 0
-290 -291 292 0
-279 91 291 0
-291 279 0
-291 -91 0
294 295 296 0
-294 -295 296 0
-270 -290 295 0
-295 270 0
-295 290 0
298 299 300 0
-298 -299 300 0
-259 -294 299 0
-299 259 0
-299 294 0
302 -104 303 0
-302 104 303 0
305 306 307 0
-305 -306 307 0
-302 108 306 0
-306 302 0
-306 -108 0
309 310 311 0
-309 -310 311 0
-290 -305 310 0
-310 290 0
-310 305 0
313 -117 314 0
-313 117 314 0
316 317 318 0
-316 -317 318 0
-313 121 317 0
-317 313 0
-317 -121 0
320 321 322 0
-320 -321 322 0
-305 -316 321 0
-321 305 0
-321 316 0
324 325 326 0
-324 -325 326 0
-282 -309 325 0
-325 282 0
-325 309 0
328 -134 329 0
-328 134 329 0
331 332 333 0
-331 -332 333 0
-294 -320 332 0
-332 294 0
-332 320 0
335 336 337 0
-335 -336 337 0
-328 142 336 0
-336 328 0
-336 -142 0
339 340 341 0
-339 -340 341 0
-316 -335 340 0
-340 316 0
-340 335 0
343 344 345 0
-343 -344 345 0
-309 -339 344 0
-344 309 0
-344 339 0
347 -155 348 0
-347 155 348 0
350 351 352 0
-350 -351 352 0
-347 159 351 0
-351 347 0
-351 -159 0
354 355 356 0
-354 -355 356 0
-335 -350 355 0
-355 335 0
-355 350 0
358 359 360 0
-358 -359 360 0
-320 -354 359 0
-359 320 0
-359 354 0
362 -172 363 0
-362 172 363 0
365 366 367 0
-365 -366 367 0
-362 176 366 0
-366 362 0
-366 -176 0
369 370 371 0
-369 -370 371 0
-350 -365 370 0
-370 350 0
-370 365 0
373 -185 374 0
-373 185 374 0
376 286 377 0
-376 -286 377 0
379 343 380 0
-379 -343 380 0
382 383 384 0
-382 -383 384 0
-373 189 383 0
-383 373 0
-383 -189 0
386 387 388 0
-386 -387 388 0
-365 -382 387 0
-387 365 0
-387 382 0
390 -198 391 0
-390 198 391 0
393 390 394 0
-393 -390 394 0
396 -202 397 0
-396 202 397 0
399 -207 400 0
-399 207 400 0
-693 674 0
-693 692 0
-674 657 0
-674 673 0
-657 642 0
-657 656 0
-642 628 0
-642 641 0
-628 616 0
-628 627 0
-616 604 0
-616 615 0
-604 592 0
-604 603 0
-592 580 0
-592 591 0
-580 570 0
-580 579 0
-570 560 0
-570 569 0
-560 550 0
-560 559 0
-550 540 0
-550 549 0
-540 530 0
-540 539 0
-530 520 0
-530 529 0
-520 510 0
-520 519 0
-510 500 0
-510 509 0
-500 492 0
-500 499 0
-492 484 0
-492 491 0
-484 476 0
-484 483 0
-476 468 0
-476 475 0
-468 460 0
-468 467 0
-460 452 0
-460 459 0
-452 444 0
-452 451 0
-444 436 0
-444 443 0
-436 430 0
-436 435 0
-430 424 0
-430 429 0
-424 418 0
-424 423 0
-418 412 0
-418 417 0
-412 408 0
-412 411 0
-408 404 0
-408 407 0
-404 402 0
-404 403 0
-402 -2 2 0
-402 2 -2 0
-403 -2 2 0
-403 2 -2 0
-407 -405 406 0
-407 405 -406 0
-405 210 0
-405 5 0
-406 1 0
-406 5 0
-210 -5 405 0
-1 -5 406 0
-411 -409 410 0
-411 409 -410 0
-409 10 0
-409 213 0
-410 10 0
-410 4 0
-10 -213 409 0
-10 -4 410 0
-417 -414 416 0
-417 414 -416 0
-414 213 0
-414 413 0
-413 217 0
-413 14 0
-416 4 0
-416 415 0
-415 9 0
-415 14 0
-213 -413 414 0
-217 -14 413 0
-4 -415 416 0
-9 -14 415 0
-423 -420 422 0
-423 420 -422 0
-420 220 0
-420 419 0
-419 19 0
-419 213 0
-422 13 0
-422 421 0
-421 19 0
-421 4 0
-220 -419 420 0
-19 -213 419 0
-13 -421 422 0
-19 -4 421 0
-429 -426 428 0
-429 426 -428 0
-426 425 0
-426 227 0
-425 224 0
-425 27 0
-428 427 0
-428 22 0
-427 18 0
-427 27 0
-425 -227 426 0
-224 -27 425 0
-427 -22 428 0
-18 -27 427 0
-435 -432 434 0
-435 432 -434 0
-432 431 0
-432 275 0
-431 36 0
-431 213 0
-434 433 0
-434 31 0
-433 36 0
-433 4 0
-431 -275 432 0
-36 -213 431 0
-433 -31 434 0
-36 -4 433 0
-443 -439 442 0
-443 439 -442 0
-439 227 0
-439 438 0
-438 234 0
-438 437 0
-437 241 0
-437 40 0
-442 22 0
-442 441 0
-441 26 0
-441 440 0
-440 35 0
-440 40 0
-227 -438 439 0
-234 -437 438 0
-241 -40 437 0
-22 -441 442 0
-26 -440 441 0
-35 -40 440 0
-451 -447 450 0
-451 447 -450 0
-447 275 0
-447 446 0
-446 244 0
-446 445 0
-445 49 0
-445 213 0
-450 31 0
-450 449 0
-449 39 0
-449 448 0
-448 49 0
-448 4 0
-275 -446 447 0
-244 -445 446 0
-49 -213 445 0
-31 -449 450 0
-39 -448 449 0
-49 -4 448 0
-459 -455 458 0
-459 455 -458 0
-455 248 0
-455 454 0
-454 453 0
-454 227 0
-453 252 0
-453 53 0
-458 44 0
-458 457 0
-457 456 0
-457 22 0
-456 48 0
-456 53 0
-248 -454 455 0
-453 -227 454 0
-252 -53 453 0
-44 -457 458 0
-456 -22 457 0
-48 -53 456 0
-467 -463 466 0
-467 463 -466 0
-463 259 0
-463 462 0
-462 461 0
-462 275 0
-461 62 0
-461 213 0
-466 57 0
-466 465 0
-465 464 0
-465 31 0
-464 62 0
-464 4 0
-259 -462 463 0
-461 -275 462 0
-62 -213 461 0
-57 -465 466 0
-464 -31 465 0
-62 -4 464 0
-475 -471 474 0
-475 471 -474 0
-471 470 0
-471 266 0
-470 255 0
-470 469 0
-469 263 0
-469 70 0
-474 473 0
-474 65 0
-473 52 0
-473 472 0
-472 61 0
-472 70 0
-470 -266 471 0
-255 -469 470 0
-263 -70 469 0
-473 -65 474 0
-52 -472 473 0
-61 -70 472 0
-483 -479 482 0
-483 479 -482 0
-479 478 0
-479 274 0
-478 270 0
-478 477 0
-477 79 0
-477 213 0
-482 481 0
-482 74 0
-481 69 0
-481 480 0
-480 79 0
-480 4 0
-478 -274 479 0
-270 -477 478 0
-79 -213 477 0
-481 -74 482 0
-69 -480 481 0
-79 -4 480 0
-491 -487 490 0
-491 487 -490 0
-487 486 0
-487 286 0
-486 485 0
-486 227 0
-485 279 0
-485 91 0
-490 489 0
-490 86 0
-489 488 0
-489 22 0
-488 78 0
-488 91 0
-486 -286 487 0
-485 -227 486 0
-279 -91 485 0
-489 -86 490 0
-488 -22 489 0
-78 -91 488 0
-499 -495 498 0
-499 495 -498 0
-495 494 0
-495 298 0
-494 493 0
-494 275 0
-493 104 0
-493 213 0
-498 497 0
-498 99 0
-497 496 0
-497 31 0
-496 104 0
-496 4 0
-494 -298 495 0
-493 -275 494 0
-104 -213 493 0
-497 -99 498 0
-496 -31 497 0
-104 -4 496 0
-509 -504 508 0
-509 504 -508 0
-504 266 0
-504 503 0
-503 282 0
-503 502 0
-502 290 0
-502 501 0
-501 302 0
-501 108 0
-508 65 0
-508 507 0
-507 82 0
-507 506 0
-506 90 0
-506 505 0
-505 103 0
-505 108 0
-266 -503 504 0
-282 -502 503 0
-290 -501 502 0
-302 -108 501 0
-65 -507 508 0
-82 -506 507 0
-90 -505 506 0
-103 -108 505 0
-519 -514 518 0
-519 514 -518 0
-514 274 0
-514 513 0
-513 294 0
-513 512 0
-512 305 0
-512 511 0
-511 117 0
-511 213 0
-518 74 0
-518 517 0
-517 95 0
-517 516 0
-516 107 0
-516 515 0
-515 117 0
-515 4 0
-274 -513 514 0
-294 -512 513 0
-305 -511 512 0
-117 -213 511 0
-74 -517 518 0
-95 -516 517 0
-107 -515 516 0
-117 -4 515 0
-529 -524 528 0
-529 524 -528 0
-524 286 0
-524 523 0
-523 309 0
-523 522 0
-522 521 0
-522 227 0
-521 313 0
-521 121 0
-528 86 0
-528 527 0
-527 112 0
-527 526 0
-526 525 0
-526 22 0
-525 116 0
-525 121 0
-286 -523 524 0
-309 -522 523 0
-521 -227 522 0
-313 -121 521 0
-86 -527 528 0
-112 -526 527 0
-525 -22 526 0
-116 -121 525 0
-539 -534 538 0
-539 534 -538 0
-534 298 0
-534 533 0
-533 320 0
-533 532 0
-532 531 0
-532 275 0
-531 134 0
-531 213 0
-538 99 0
-538 537 0
-537 125 0
-537 536 0
-536 535 0
-536 31 0
-535 134 0
-535 4 0
-298 -533 534 0
-320 -532 533 0
-531 -275 532 0
-134 -213 531 0
-99 -537 538 0
-125 -536 537 0
-535 -31 536 0
-134 -4 535 0
-549 -544 548 0
-549 544 -548 0
-544 324 0
-544 543 0
-543 542 0
-543 266 0
-542 316 0
-542 541 0
-541 328 0
-541 142 0
-548 129 0
-548 547 0
-547 546 0
-547 65 0
-546 120 0
-546 545 0
-545 133 0
-545 142 0
-324 -543 544 0
-542 -266 543 0
-316 -541 542 0
-328 -142 541 0
-129 -547 548 0
-546 -65 547 0
-120 -545 546 0
-133 -142 545 0
-559 -554 558 0
-559 554 -558 0
-554 331 0
-554 553 0
-553 552 0
-553 274 0
-552 335 0
-552 551 0
-551 155 0
-551 213 0
-558 137 0
-558 557 0
-557 556 0
-557 74 0
-556 141 0
-556 555 0
-555 155 0
-555 4 0
-331 -553 554 0
-552 -274 553 0
-335 -551 552 0
-155 -213 551 0
-137 -557 558 0
-556 -74 557 0
-141 -555 556 0
-155 -4 555 0
-569 -564 568 0
-569 564 -568 0
-564 343 0
-564 563 0
-563 562 0
-563 286 0
-562 561 0
-562 227 0
-561 347 0
-561 159 0
-568 150 0
-568 567 0
-567 566 0
-567 86 0
-566 565 0
-566 22 0
-565 154 0
-565 159 0
-343 -563 564 0
-562 -286 563 0
-561 -227 562 0
-347 -159 561 0
-150 -567 568 0
-566 -86 567 0
-565 -22 566 0
-154 -159 565 0
-579 -574 578 0
-579 574 -578 0
-574 358 0
-574 573 0
-573 572 0
-573 298 0
-572 571 0
-572 275 0
-571 172 0
-571 213 0
-578 167 0
-578 577 0
-577 576 0
-577 99 0
-576 575 0
-576 31 0
-575 172 0
-575 4 0
-358 -573 574 0
-572 -298 573 0
-571 -275 572 0
-172 -213 571 0
-167 -577 578 0
-576 -99 577 0
-575 -31 576 0
-172 -4 575 0
-591 -585 590 0
-591 585 -590 0
-585 583 0
-585 584 0
-583 339 0
-583 582 0
-582 350 0
-582 581 0
-581 362 0
-581 176 0
-584 266 0
-584 324 0
-590 588 0
-590 589 0
-588 146 0
-588 587 0
-587 158 0
-587 586 0
-586 171 0
-586 176 0
-589 65 0
-589 129 0
-583 -584 585 0
-339 -582 583 0
-350 -581 582 0
-362 -176 581 0
-266 -324 584 0
-588 -589 590 0
-146 -587 588 0
-158 -586 587 0
-171 -176 586 0
-65 -129 589 0
-603 -597 602 0
-603 597 -602 0
-597 595 0
-597 596 0
-595 354 0
-595 594 0
-594 365 0
-594 593 0
-593 185 0
-593 213 0
-596 274 0
-596 331 0
-602 600 0
-602 601 0
-600 163 0
-600 599 0
-599 175 0
-599 598 0
-598 185 0
-598 4 0
-601 74 0
-601 137 0
-595 -596 597 0
-354 -594 595 0
-365 -593 594 0
-185 -213 593 0
-274 -331 596 0
-600 -601 602 0
-163 -599 600 0
-175 -598 599 0
-185 -4 598 0
-74 -137 601 0
-615 -609 614 0
-615 609 -614 0
-609 607 0
-609 608 0
-607 369 0
-607 606 0
-606 605 0
-606 227 0
-605 373 0
-605 189 0
-614 612 0
-614 613 0
-612 180 0
-612 611 0
-611 610 0
-611 22 0
-610 184 0
-610 189 0
-613 86 0
-613 150 0
-607 -608 609 0
-369 -606 607 0
-605 -227 606 0
-373 -189 605 0
-612 -613 614 0
-180 -611 612 0
-610 -22 611 0
-184 -189 610 0
-86 -150 613 0
-627 -621 626 0
-627 621 -626 0
-621 619 0
-621 620 0
-619 386 0
-619 618 0
-618 617 0
-618 275 0
-617 198 0
-617 213 0
-620 298 0
-620 358 0
-626 624 0
-626 625 0
-624 193 0
-624 623 0
-623 622 0
-623 31 0
-622 198 0
-622 4 0
-625 99 0
-625 167 0
-619 -620 621 0
-386 -618 619 0
-617 -275 618 0
-198 -213 617 0
-298 -358 620 0
-624 -625 626 0
-193 -623 624 0
-622 -31 623 0
-198 -4 622 0
-99 -167 625 0
-641 -634 640 0
-641 634 -640 0
-634 631 0
-634 633 0
-631 630 0
-631 266 0
-630 382 0
-630 629 0
-629 390 0
-629 202 0
-633 324 0
-633 632 0
-632 339 0
-632 369 0
-640 637 0
-640 639 0
-637 636 0
-637 65 0
-636 188 0
-636 635 0
-635 197 0
-635 202 0
-639 129 0
-639 638 0
-638 146 0
-638 180 0
-631 -633 634 0
-630 -266 631 0
-382 -629 630 0
-390 -202 629 0
-324 -632 633 0
-339 -369 632 0
-637 -639 640 0
-636 -65 637 0
-188 -635 636 0
-197 -202 635 0
-129 -638 639 0
-146 -180 638 0
-656 -649 655 0
-656 649 -655 0
-649 646 0
-649 648 0
-646 645 0
-646 274 0
-645 643 0
-645 644 0
-644 207 0
-644 213 0
-648 331 0
-648 647 0
-647 354 0
-647 386 0
-655 652 0
-655 654 0
-652 651 0
-652 74 0
-651 201 0
-651 650 0
-650 207 0
-650 4 0
-654 137 0
-654 653 0
-653 163 0
-653 193 0
-646 -648 649 0
-645 -274 646 0
-643 -644 645 0
-207 -213 644 0
-331 -647 648 0
-354 -386 647 0
-652 -654 655 0
-651 -74 652 0
-201 -650 651 0
-207 -4 650 0
-137 -653 654 0
-163 -193 653 0
-673 -665 672 0
-673 665 -672 0
-665 661 0
-665 664 0
-661 660 0
-661 286 0
-660 659 0
-660 227 0
-659 -399 658 0
-659 399 -658 0
-664 343 0
-664 663 0
-663 369 0
-663 662 0
-662 382 0
-662 643 0
-672 668 0
-672 671 0
-668 667 0
-668 86 0
-667 666 0
-667 22 0
-666 206 0
-666 658 0
-671 150 0
-671 670 0
-670 180 0
-670 669 0
-669 188 0
-669 201 0
-661 -664 665 0
-660 -286 661 0
-659 -227 660 0
399 658 659 0
-399 -658 659 0
-343 -663 664 0
-369 -662 663 0
-382 -643 662 0
-668 -671 672 0
-667 -86 668 0
-666 -22 667 0
-206 -658 666 0
-150 -670 671 0
-180 -669 670 0
-188 -201 669 0
-692 -683 691 0
-692 683 -691 0
-683 678 0
-683 682 0
-678 677 0
-678 298 0
-677 676 0
-677 275 0
-676 675 0
-676 213 0
-682 358 0
-682 681 0
-681 386 0
-681 680 0
-680 643 0
-680 679 0
-679 399 0
-679 -658 0
-691 686 0
-691 690 0
-686 685 0
-686 99 0
-685 684 0
-685 31 0
-684 675 0
-684 4 0
-690 167 0
-690 689 0
-689 193 0
-689 688 0
-688 201 0
-688 687 0
-687 206 0
-687 -658 0
-678 -682 683 0
-677 -298 678 0
-676 -275 677 0
-675 -213 676 0
-358 -681 682 0
-386 -680 681 0
-643 -679 680 0
-399 658 679 0
-686 -690 691 0
-685 -99 686 0
-684 -31 685 0
-675 -4 684 0
-167 -689 690 0
-193 -688 689 0
-201 -687 688 0
-206 658 687 0
2003 0
1 -2004 0
-5 -2004 0
-1 5 2004 0
9 -2005 0
-14 -2005 0
-9 14 2005 0
13 -2006 0
4 -2006 0
-13 -4 2006 0
18 -2007 0
-27 -2007 0
-18 27 2007 0
26 -2008 0
13 -2008 0
-26 -13 2008 0
35 -2009 0
-40 -2009 0
-35 40 2009 0
39 -2010 0
26 -2010 0
-39 -26 2010 0
48 -2011 0
-53 -2011 0
-48 53 2011 0
52 -2012 0
39 -2012 0
-52 -39 2012 0
44 -2013 0
22 -2013 0
-44 -22 2013 0
61 -2014 0
-70 -2014 0
-61 70 2014 0
57 -2015 0
31 -2015 0
-57 -31 2015 0
69 -2016 0
52 -2016 0
-69 -52 2016 0
44 -2017 0
82 -2017 0
-44 -82 2017 0
78 -2018 0
-91 -2018 0
-78 91 2018 0
69 -2019 0
90 -2019 0
-69 -90 2019 0
57 -2020 0
95 -2020 0
-57 -95 2020 0
-108 -2021 0
103 -2021 0
108 -103 2021 0
107 -2022 0
90 -2022 0
-107 -90 2022 0
-121 -2023 0
116 -2023 0
121 -116 2023 0
107 -2024 0
120 -2024 0
-107 -120 2024 0
112 -2025 0
82 -2025 0
-112 -82 2025 0
95 -2026 0
125 -2026 0
-95 -125 2026 0
-142 -2027 0
133 -2027 0
142 -133 2027 0
141 -2028 0
120 -2028 0
-141 -120 2028 0
112 -2029 0
146 -2029 0
-112 -146 2029 0
-159 -2030 0
154 -2030 0
159 -154 2030 0
158 -2031 0
141 -2031 0
-158 -141 2031 0
125 -2032 0
163 -2032 0
-125 -163 2032 0
-176 -2033 0
171 -2033 0
176 -171 2033 0
158 -2034 0
175 -2034 0
-158 -175 2034 0
-189 -2035 0
184 -2035 0
189 -184 2035 0
188 -2036 0
175 -2036 0
-188 -175 2036 0
-202 -2037 0
197 -2037 0
202 -197 2037 0
-5 -2038 0
210 -2038 0
5 -210 2038 0
-14 -2039 0
217 -2039 0
14 -217 2039 0
220 -2040 0
213 -2040 0
-220 -213 2040 0
-27 -2041 0
224 -2041 0
27 -224 2041 0
-40 -2042 0
241 -2042 0
40 -241 2042 0
244 -2043 0
234 -2043 0
-244 -234 2043 0
252 -2044 0
-53 -2044 0
-252 53 2044 0
244 -2045 0
255 -2045 0
-244 -255 2045 0
248 -2046 0
227 -2046 0
-248 -227 2046 0
263 -2047 0
-70 -2047 0
-263 70 2047 0
270 -2048 0
255 -2048 0
-270 -255 2048 0
248 -2049 0
282 -2049 0
-248 -282 2049 0
-91 -2050 0
279 -2050 0
91 -279 2050 0
270 -2051 0
290 -2051 0
-270 -290 2051 0
259 -2052 0
294 -2052 0
-259 -294 2052 0
-108 -2053 0
302 -2053 0
108 -302 2053 0
290 -2054 0
305 -2054 0
-290 -305 2054 0
-121 -2055 0
313 -2055 0
121 -313 2055 0
316 -2056 0
305 -2056 0
-316 -305 2056 0
282 -2057 0
309 -2057 0
-282 -309 2057 0
320 -2058 0
294 -2058 0
-320 -294 2058 0
328 -2059 0
-142 -2059 0
-328 142 2059 0
316 -2060 0
335 -2060 0
-316 -335 2060 0
339 -2061 0
309 -2061 0
-339 -309 2061 0
347 -2062 0
-159 -2062 0
-347 159 2062 0
335 -2063 0
350 -2063 0
-335 -350 2063 0
354 -2064 0
320 -2064 0
-354 -320 2064 0
362 -2065 0
-176 -2065 0
-362 176 2065 0
365 -2066 0
350 -2066 0
-365 -350 2066 0
373 -2067 0
-189 -2067 0
-373 189 2067 0
365 -2068 0
382 -2068 0
-365 -382 2068 0
5 -2069 0
210 -2069 0
-5 -210 2069 0
1 -2070 0
5 -2070 0
-1 -5 2070 0
10 -2071 0
213 -2071 0
-10 -213 2071 0
4 -2072 0
10 -2072 0
-4 -10 2072 0
14 -2073 0
217 -2073 0
-14 -217 2073 0
213 -2074 0
413 -2074 0
-213 -413 2074 0
9 -2075 0
14 -2075 0
-9 -14 2075 0
4 -2076 0
415 -2076 0
-4 -415 2076 0
19 -2077 0
213 -2077 0
-19 -213 2077 0
220 -2078 0
419 -2078 0
-220 -419 2078 0
4 -2079 0
19 -2079 0
-4 -19 2079 0
13 -2080 0
421 -2080 0
-13 -421 2080 0
27 -2081 0
224 -2081 0
-27 -224 2081 0
227 -2082 0
425 -2082 0
-227 -425 2082 0
18 -2083 0
27 -2083 0
-18 -27 2083 0
22 -2084 0
427 -2084 0
-22 -427 2084 0
36 -2085 0
213 -2085 0
-36 -213 2085 0
4 -2086 0
36 -2086 0
-4 -36 2086 0
31 -2087 0
433 -2087 0
-31 -433 2087 0
40 -2088 0
241 -2088 0
-40 -241 2088 0
234 -2089 0
437 -2089 0
-234 -437 2089 0
227 -2090 0
438 -2090 0
-227 -438 2090 0
35 -2091 0
40 -2091 0
-35 -40 2091 0
26 -2092 0
440 -2092 0
-26 -440 2092 0
22 -2093 0
441 -2093 0
-22 -441 2093 0
49 -2094 0
213 -2094 0
-49 -213 2094 0
244 -2095 0
445 -2095 0
-244 -445 2095 0
4 -2096 0
49 -2096 0
-4 -49 2096 0
39 -2097 0
448 -2097 0
-39 -448 2097 0
31 -2098 0
449 -2098 0
-31 -449 2098 0
252 -2099 0
53 -2099 0
-252 -53 2099 0
227 -2100 0
453 -2100 0
-227 -453 2100 0
248 -2101 0
454 -2101 0
-248 -454 2101 0
48 -2102 0
53 -2102 0
-48 -53 2102 0
22 -2103 0
456 -2103 0
-22 -456 2103 0
44 -2104 0
457 -2104 0
-44 -457 2104 0
62 -2105 0
213 -2105 0
-62 -213 2105 0
259 -2106 0
462 -2106 0
-259 -462 2106 0
62 -2107 0
4 -2107 0
-62 -4 2107 0
31 -2108 0
464 -2108 0
-31 -464 2108 0
57 -2109 0
465 -2109 0
-57 -465 2109 0
263 -2110 0
70 -2110 0
-263 -70 2110 0
255 -2111 0
469 -2111 0
-255 -469 2111 0
266 -2112 0
470 -2112 0
-266 -470 2112 0
61 -2113 0
70 -2113 0
-61 -70 2113 0
52 -2114 0
472 -2114 0
-52 -472 2114 0
65 -2115 0
473 -2115 0
-65 -473 2115 0
79 -2116 0
213 -2116 0
-79 -213 2116 0
270 -2117 0
477 -2117 0
-270 -477 2117 0
274 -2118 0
478 -2118 0
-274 -478 2118 0
79 -2119 0
4 -2119 0
-79 -4 2119 0
69 -2120 0
480 -2120 0
-69 -480 2120 0
74 -2121 0
481 -2121 0
-74 -481 2121 0
91 -2122 0
279 -2122 0
-91 -279 2122 0
227 -2123 0
485 -2123 0
-227 -485 2123 0
286 -2124 0
486 -2124 0
-286 -486 2124 0
78 -2125 0
91 -2125 0
-78 -91 2125 0
22 -2126 0
488 -2126 0
-22 -488 2126 0
86 -2127 0
489 -2127 0
-86 -489 2127 0
104 -2128 0
213 -2128 0
-104 -213 2128 0
298 -2129 0
494 -2129 0
-298 -494 2129 0
104 -2130 0
4 -2130 0
-104 -4 2130 0
31 -2131 0
496 -2131 0
-31 -496 2131 0
99 -2132 0
497 -2132 0
-99 -497 2132 0
108 -2133 0
302 -2133 0
-108 -302 2133 0
290 -2134 0
501 -2134 0
-290 -501 2134 0
282 -2135 0
502 -2135 0
-282 -502 2135 0
266 -2136 0
503 -2136 0
-266 -503 2136 0
108 -2137 0
103 -2137 0
-108 -103 2137 0
90 -2138 0
505 -2138 0
-90 -505 2138 0
82 -2139 0
506 -2139 0
-82 -506 2139 0
65 -2140 0
507 -2140 0
-65 -507 2140 0
117 -2141 0
213 -2141 0
-117 -213 2141 0
305 -2142 0
511 -2142 0
-305 -511 2142 0
294 -2143 0
512 -2143 0
-294 -512 2143 0
274 -2144 0
513 -2144 0
-274 -513 2144 0
117 -2145 0
4 -2145 0
-117 -4 2145 0
107 -2146 0
515 -2146 0
-107 -515 2146 0
95 -2147 0
516 -2147 0
-95 -516 2147 0
74 -2148 0
517 -2148 0
-74 -517 2148 0
121 -2149 0
313 -2149 0
-121 -313 2149 0
227 -2150 0
521 -2150 0
-227 -521 2150 0
309 -2151 0
522 -2151 0
-309 -522 2151 0
286 -2152 0
523 -2152 0
-286 -523 2152 0
121 -2153 0
116 -2153 0
-121 -116 2153 0
22 -2154 0
525 -2154 0
-22 -525 2154 0
112 -2155 0
526 -2155 0
-112 -526 2155 0
86 -2156 0
527 -2156 0
-86 -527 2156 0
134 -2157 0
213 -2157 0
-134 -213 2157 0
320 -2158 0
532 -2158 0
-320 -532 2158 0
298 -2159 0
533 -2159 0
-298 -533 2159 0
134 -2160 0
4 -2160 0
-134 -4 2160 0
31 -2161 0
535 -2161 0
-31 -535 2161 0
125 -2162 0
536 -2162 0
-125 -536 2162 0
99 -2163 0
537 -2163 0
-99 -537 2163 0
328 -2164 0
142 -2164 0
-328 -142 2164 0
316 -2165 0
541 -2165 0
-316 -541 2165 0
266 -2166 0
542 -2166 0
-266 -542 2166 0
324 -2167 0
543 -2167 0
-324 -543 2167 0
142 -2168 0
133 -2168 0
-142 -133 2168 0
120 -2169 0
545 -2169 0
-120 -545 2169 0
65 -2170 0
546 -2170 0
-65 -546 2170 0
129 -2171 0
547 -2171 0
-129 -547 2171 0
155 -2172 0
213 -2172 0
-155 -213 2172 0
335 -2173 0
551 -2173 0
-335 -551 2173 0
274 -2174 0
552 -2174 0
-274 -552 2174 0
331 -2175 0
553 -2175 0
-331 -553 2175 0
155 -2176 0
4 -2176 0
-155 -4 2176 0
141 -2177 0
555 -2177 0
-141 -555 2177 0
74 -2178 0
556 -2178 0
-74 -556 2178 0
137 -2179 0
557 -2179 0
-137 -557 2179 0
347 -2180 0
159 -2180 0
-347 -159 2180 0
227 -2181 0
561 -2181 0
-227 -561 2181 0
286 -2182 0
562 -2182 0
-286 -562 2182 0
343 -2183 0
563 -2183 0
-343 -563 2183 0
159 -2184 0
154 -2184 0
-159 -154 2184 0
22 -2185 0
565 -2185 0
-22 -565 2185 0
86 -2186 0
566 -2186 0
-86 -566 2186 0
150 -2187 0
567 -2187 0
-150 -567 2187 0
172 -2188 0
213 -2188 0
-172 -213 2188 0
298 -2189 0
572 -2189 0
-298 -572 2189 0
358 -2190 0
573 -2190 0
-358 -573 2190 0
172 -2191 0
4 -2191 0
-172 -4 2191 0
31 -2192 0
575 -2192 0
-31 -575 2192 0
99 -2193 0
576 -2193 0
-99 -576 2193 0
167 -2194 0
577 -2194 0
-167 -577 2194 0
362 -2195 0
176 -2195 0
-362 -176 2195 0
350 -2196 0
581 -2196 0
-350 -581 2196 0
339 -2197 0
582 -2197 0
-339 -582 2197 0
324 -2198 0
266 -2198 0
-324 -266 2198 0
583 -2199 0
584 -2199 0
-583 -584 2199 0
176 -2200 0
171 -2200 0
-176 -171 2200 0
158 -2201 0
586 -2201 0
-158 -586 2201 0
146 -2202 0
587 -2202 0
-146 -587 2202 0
65 -2203 0
129 -2203 0
-65 -129 2203 0
588 -2204 0
589 -2204 0
-588 -589 2204 0
185 -2205 0
213 -2205 0
-185 -213 2205 0
365 -2206 0
593 -2206 0
-365 -593 2206 0
354 -2207 0
594 -2207 0
-354 -594 2207 0
331 -2208 0
274 -2208 0
-331 -274 2208 0
595 -2209 0
596 -2209 0
-595 -596 2209 0
185 -2210 0
4 -2210 0
-185 -4 2210 0
175 -2211 0
598 -2211 0
-175 -598 2211 0
163 -2212 0
599 -2212 0
-163 -599 2212 0
74 -2213 0
137 -2213 0
-74 -137 2213 0
600 -2214 0
601 -2214 0
-600 -601 2214 0
373 -2215 0
189 -2215 0
-373 -189 2215 0
227 -2216 0
605 -2216 0
-227 -605 2216 0
369 -2217 0
606 -2217 0
-369 -606 2217 0
189 -2218 0
184 -2218 0
-189 -184 2218 0
22 -2219 0
610 -2219 0
-22 -610 2219 0
180 -2220 0
611 -2220 0
-180 -611 2220 0
86 -2221 0
150 -2221 0
-86 -150 2221 0
612 -2222 0
613 -2222 0
-612 -613 2222 0
198 -2223 0
213 -2223 0
-198 -213 2223 0
386 -2224 0
618 -2224 0
-386 -618 2224 0
358 -2225 0
298 -2225 0
-358 -298 2225 0
619 -2226 0
620 -2226 0
-619 -620 2226 0
198 -2227 0
4 -2227 0
-198 -4 2227 0
31 -2228 0
622 -2228 0
-31 -622 2228 0
193 -2229 0
623 -2229 0
-193 -623 2229 0
99 -2230 0
167 -2230 0
-99 -167 2230 0
624 -2231 0
625 -2231 0
-624 -625 2231 0
202 -2232 0
390 -2232 0
-202 -390 2232 0
382 -2233 0
629 -2233 0
-382 -629 2233 0
266 -2234 0
630 -2234 0
-266 -630 2234 0
369 -2235 0
339 -2235 0
-369 -339 2235 0
324 -2236 0
632 -2236 0
-324 -632 2236 0
631 -2237 0
633 -2237 0
-631 -633 2237 0
202 -2238 0
197 -2238 0
-202 -197 2238 0
188 -2239 0
635 -2239 0
-188 -635 2239 0
65 -2240 0
636 -2240 0
-65 -636 2240 0
180 -2241 0
146 -2241 0
-180 -146 2241 0
129 -2242 0
638 -2242 0
-129 -638 2242 0
637 -2243 0
639 -2243 0
-637 -639 2243 0
207 -2244 0
213 -2244 0
-207 -213 2244 0
274 -2245 0
645 -2245 0
-274 -645 2245 0
354 -2246 0
386 -2246 0
-354 -386 2246 0
331 -2247 0
647 -2247 0
-331 -647 2247 0
646 -2248 0
648 -2248 0
-646 -648 2248 0
207 -2249 0
4 -2249 0
-207 -4 2249 0
201 -2250 0
650 -2250 0
-201 -650 2250 0
74 -2251 0
651 -2251 0
-74 -651 2251 0
193 -2252 0
163 -2252 0
-193 -163 2252 0
137 -2253 0
653 -2253 0
-137 -653 2253 0
652 -2254 0
654 -2254 0
-652 -654 2254 0
-399 -2255 0
658 -2255 0
399 -658 2255 0
399 -2256 0
-658 -2256 0
-399 658 2256 0
-2255 -2257 0
-2256 -2257 0
2255 2256 2257 0
227 -2258 0
659 -2258 0
-227 -659 2258 0
286 -2259 0
660 -2259 0
-286 -660 2259 0
369 -2260 0
662 -2260 0
-369 -662 2260 0
343 -2261 0
663 -2261 0
-343 -663 2261 0
661 -2262 0
664 -2262 0
-661 -664 2262 0
658 -2263 0
206 -2263 0
-658 -206 2263 0
22 -2264 0
666 -2264 0
-22 -666 2264 0
86 -2265 0
667 -2265 0
-86 -667 2265 0
201 -2266 0
188 -2266 0
-201 -188 2266 0
180 -2267 0
669 -2267 0
-180 -669 2267 0
150 -2268 0
670 -2268 0
-150 -670 2268 0
668 -2269 0
671 -2269 0
-668 -671 2269 0
675 -2270 0
213 -2270 0
-675 -213 2270 0
298 -2271 0
677 -2271 0
-298 -677 2271 0
386 -2272 0
680 -2272 0
-386 -680 2272 0
358 -2273 0
681 -2273 0
-358 -681 2273 0
678 -2274 0
682 -2274 0
-678 -682 2274 0
4 -2275 0
675 -2275 0
-4 -675 2275 0
31 -2276 0
684 -2276 0
-31 -684 2276 0
99 -2277 0
685 -2277 0
-99 -685 2277 0
-658 -2278 0
206 -2278 0
658 -206 2278 0
201 -2279 0
687 -2279 0
-201 -687 2279 0
193 -2280 0
688 -2280 0
-193 -688 2280 0
167 -2281 0
689 -2281 0
-167 -689 2281 0
686 -2282 0
690 -2282 0
-686 -690 2282 0
